NAME : X_18_seed_123_id_18
TYPE : CVRP
DIMENSION : 181
EDGE_WEIGHT_TYPE : EUC_2D
CAPACITY : 8
NODE_COORD_SECTION
1	998	37
2	463	372
3	563	366
4	699	107
5	115	851
6	222	646
7	657	342
8	576	328
9	692	125
10	521	344
11	215	658
12	605	338
13	735	208
14	755	293
15	328	414
16	469	333
17	159	884
18	311	577
19	206	649
20	489	325
21	755	282
22	603	399
23	695	297
24	596	347
25	411	244
26	761	167
27	585	314
28	757	127
29	487	573
30	671	324
31	761	69
32	426	396
33	646	369
34	546	273
35	550	255
36	559	303
37	114	850
38	499	364
39	249	665
40	750	122
41	450	290
42	69	848
43	559	318
44	723	104
45	735	43
46	484	366
47	395	382
48	658	429
49	155	648
50	265	902
51	85	825
52	573	343
53	588	387
54	170	873
55	735	100
56	435	149
57	566	309
58	759	378
59	254	643
60	88	829
61	64	520
62	10	800
63	594	379
64	618	399
65	419	423
66	707	65
67	715	103
68	414	314
69	788	428
70	208	672
71	517	366
72	234	541
73	586	355
74	65	839
75	554	527
76	882	63
77	269	362
78	661	318
79	188	989
80	125	670
81	643	254
82	130	838
83	99	905
84	726	360
85	499	355
86	219	601
87	699	219
88	625	316
89	125	566
90	296	630
91	165	596
92	73	844
93	462	353
94	461	403
95	590	317
96	695	120
97	494	356
98	679	374
99	460	341
100	420	467
101	106	927
102	585	365
103	648	356
104	15	867
105	653	385
106	657	104
107	659	309
108	586	527
109	432	583
110	218	846
111	5	781
112	130	873
113	584	388
114	621	429
115	509	371
116	80	936
117	698	424
118	40	708
119	704	66
120	607	342
121	61	835
122	26	963
123	700	64
124	429	304
125	156	604
126	643	342
127	576	431
128	229	679
129	92	837
130	701	90
131	731	287
132	455	348
133	551	249
134	515	381
135	498	374
136	776	421
137	503	373
138	425	338
139	81	899
140	315	468
141	223	640
142	133	893
143	594	332
144	205	636
145	650	93
146	618	298
147	577	379
148	620	357
149	109	850
150	194	645
151	667	125
152	237	686
153	525	280
154	13	910
155	225	640
156	381	413
157	575	335
158	87	792
159	171	635
160	537	439
161	67	897
162	512	478
163	500	404
164	669	336
165	118	856
166	571	351
167	580	277
168	786	344
169	738	156
170	413	348
171	452	375
172	697	73
173	185	660
174	116	908
175	103	855
176	234	743
177	195	636
178	675	211
179	542	504
180	426	394
181	254	663
DEMAND_SECTION
1	0
2	1
3	1
4	1
5	1
6	1
7	1
8	1
9	1
10	1
11	1
12	1
13	1
14	1
15	1
16	1
17	1
18	1
19	1
20	1
21	1
22	1
23	1
24	1
25	1
26	1
27	1
28	1
29	1
30	1
31	1
32	1
33	1
34	1
35	1
36	1
37	1
38	1
39	1
40	1
41	1
42	1
43	1
44	1
45	1
46	1
47	1
48	1
49	1
50	1
51	1
52	1
53	1
54	1
55	1
56	1
57	1
58	1
59	1
60	1
61	1
62	1
63	1
64	1
65	1
66	1
67	1
68	1
69	1
70	1
71	1
72	1
73	1
74	1
75	1
76	1
77	1
78	1
79	1
80	1
81	1
82	1
83	1
84	1
85	1
86	1
87	1
88	1
89	1
90	1
91	1
92	1
93	1
94	1
95	1
96	1
97	1
98	1
99	1
100	1
101	1
102	1
103	1
104	1
105	1
106	1
107	1
108	1
109	1
110	1
111	1
112	1
113	1
114	1
115	1
116	1
117	1
118	1
119	1
120	1
121	1
122	1
123	1
124	1
125	1
126	1
127	1
128	1
129	1
130	1
131	1
132	1
133	1
134	1
135	1
136	1
137	1
138	1
139	1
140	1
141	1
142	1
143	1
144	1
145	1
146	1
147	1
148	1
149	1
150	1
151	1
152	1
153	1
154	1
155	1
156	1
157	1
158	1
159	1
160	1
161	1
162	1
163	1
164	1
165	1
166	1
167	1
168	1
169	1
170	1
171	1
172	1
173	1
174	1
175	1
176	1
177	1
178	1
179	1
180	1
181	1
DEPOT_SECTION
1
-1
EOF
